&inputpp 
   outdir = './'
   prefix = 'benzene'
   seedname = 'benzene'
   spin_component = 'none'
   write_mmn = .true.
   write_amn = .true.
  write_unk  = .true.
   wvfn_formatted = .true.
   wan_mode = 'standalone'
/
