&inputpp
  outdir     =  './'
  prefix     =  'si'
  seedname   =  'si'
  spin_component = 'none'
  write_amn  =  .true.
  write_mmn  =  .true.
  write_unkg     = .false.
  write_unk  = .true.
  wvfn_formatted = .true.
  scdm_proj         = true
  scdm_entanglement = 'isolated'
/
